\ Model Routes
\ LP format - for model browsing. Use MPS format to capture full model detail.
Maximize
  - 191.7153353028244 R{0,0} + 623.2046552982704 R{0,1}
   + 623.2046552982704 R{0,2} - 249.2301939667805 R{0,3}
   + 222.8649545650627 R{0,4} + 892.5014194710873 R{0,5}
   + 568.2280287393723 R{0,6} + 486.6829182142316 R{0,7}
   + 351.5833382601838 R{0,8} + 1203.021530884487 R{0,9}
   + 882.1504356764381 R{0,10} + 125.2783480442656 R{0,11}
   + 729.2012859484413 R{0,12} + 368.9707347116581 R{0,13}
   + 368.3846205900942 R{0,14} + 318.8015012013578 R{0,15}
   - 256.140831891889 R{1,0} + 216.3226429839851 R{1,1}
   + 843.8103196491563 R{1,2} + 541.9724420902087 R{1,3}
   + 846.0644184819892 R{1,4} + 926.7408743426711 R{1,5}
   + 2049.905388800303 R{1,6} + 766.5308972148679 R{1,7}
   + 1508.662883866697 R{1,8} + 1395.081895828242 R{1,9}
   + 1854.275238161063 R{1,10} + 1247.162506045386 R{1,11}
   + 1091.625722609494 R{1,12} + 902.7296699237577 R{1,13}
   + 920.8543055482044 R{1,14} + 854.835956076392 R{1,15}
   + 1159.635227210326 R{1,16} + 1489.211975189368 R{1,17}
   + 812.3534292908109 R{1,18} + 453.7946283119028 R{1,19}
   + 306.8144864253746 R{1,20} + 1259.845429237831 R{1,21}
   + 1198.881248318718 R{2,0} + 1198.881248318718 R{2,1}
   - 278.4443928850388 R{2,2} - 59.13410337035452 R{2,3}
   + 602.7748664658451 R{2,4} + 1100.505917706273 R{2,5}
   + 815.3655891975814 R{2,6} + 1347.403752651192 R{2,7}
   + 964.6527622702913 R{2,8} + 672.4098393929465 R{2,9}
   + 484.606778020975 R{2,10} + 827.6856727533598 R{2,11}
   + 1127.126554447374 R{2,12} + 916.1855209384714 R{2,13}
   + 458.825689350445 R{2,14} + 742.7084015354478 R{2,15}
   + 1021.534971337508 R{2,16} + 692.2639684814051 R{2,17}
   + 906.9444311050818 R{2,18} + 542.9091311841647 R{2,19}
   + 1021.534971337508 R{2,20} + 370.7762050653635 R{2,21}
   + 526.7385996817375 R{2,22} + 892.6424592665308 R{2,23}
   + 208.9971902923185 R{2,24} + 367.3268243107262 R{2,25}
   + 952.6103180533601 R{2,26} + 272.4160326695526 R{2,27}
   - 260.2482995389823 R{3,0} + 459.0257104485919 R{3,1}
   + 838.3862215394925 R{3,2} + 768.8491195486179 R{3,3}
   + 589.8062724652956 R{3,4} + 650.6033265680742 R{3,5}
   + 334.5188294352722 R{3,6} + 379.7507796476788 R{3,7}
   + 1285.133308441732 R{3,8} + 1232.976690401138 R{3,9}
   + 814.047228705321 R{3,10} + 1205.418925527174 R{3,11}
   + 1463.230978897686 R{3,12} + 452.6761827193625 R{3,13}
   + 1239.680791113321 R{3,14} + 1162.83606602275 R{3,15}
   + 1011.070672739449 R{3,16} + 827.7861290850822 R{3,17}
   + 778.9096337996643 R{3,18} + 427.3952254441705 R{3,19}
   + 513.5616765185945 R{3,20} + 486.1699552786305 R{3,21}
   + 120.3811625677244 R{3,22} + 273.4683229810973 R{3,23}
   - 242.5208875955131 R{4,0} + 1066.379443184683 R{4,1}
   + 1576.196574514046 R{4,2} + 2039.10049209481 R{4,3}
   + 1681.90426036797 R{4,4} + 1274.36549094027 R{4,5}
   + 1397.082736660202 R{4,6} + 1541.73515937877 R{4,7}
   + 1768.055695782721 R{4,8} + 1878.211277334171 R{4,9}
   + 708.5921340399433 R{4,10} + 1329.73694182071 R{4,11}
   + 1389.614949562421 R{4,12} + 2137.402440791461 R{4,13}
   + 1317.839372935921 R{4,14} + 1670.989101376965 R{4,15}
   + 1893.508535157559 R{4,16} + 732.1070786668196 R{4,17}
   + 1163.512136531434 R{4,18} + 1387.855122497651 R{4,19}
   + 1226.878186594534 R{4,20} + 1613.0255404418 R{4,21}
   + 1221.082525182932 R{4,22} + 1708.586894834383 R{4,23}
   + 1588.261946073046 R{4,24} + 1779.6441203432 R{4,25}
   + 854.2706067038853 R{4,26} + 1477.754878621447 R{4,27}
   + 1182.078529548715 R{4,28} + 1085.048392011228 R{4,29}
   + 795.1078598729114 R{4,30} + 1451.496440686955 R{4,31}
   + 1389.398880764534 R{4,32} + 1312.754484390436 R{4,33}
   - 231.9775664337766 R{5,0} + 166.8396544238635 R{5,1}
   + 729.4065638506388 R{5,2} + 1361.441276159085 R{5,3}
   + 1878.261616147502 R{5,4} + 2166.100309185072 R{5,5}
   + 2392.593173268211 R{5,6} + 882.588865119089 R{5,7}
   + 882.588865119089 R{5,8} + 2222.036665358691 R{5,9}
   + 1885.268851635508 R{5,10} + 2092.722323621728 R{5,11}
   + 2876.78724516539 R{5,12} + 801.2408336006608 R{5,13}
   + 1252.52037499474 R{5,14} + 1545.781645424986 R{5,15}
   + 1571.364444611075 R{5,16} + 1763.896655882011 R{5,17}
   + 2877.235117462747 R{5,18} + 1370.077618509777 R{5,19}
   - 231.1436095783099 R{6,0} + 1370.402709432251 R{6,1}
   + 2203.660382897198 R{6,2} + 2548.258740052186 R{6,3}
   + 2063.081738770625 R{6,4} + 1466.849717191506 R{6,5}
   + 1296.241708678838 R{6,6} + 1703.857412687147 R{6,7}
   + 2773.821085747155 R{6,8} + 2155.126140516636 R{6,9}
   + 3187.750569146492 R{6,10} + 2485.202977411164 R{6,11}
   + 2286.983487700058 R{6,12} + 1809.112844999557 R{6,13}
   + 2265.867089457372 R{6,14} + 1951.27977773446 R{6,15}
   + 1537.074980323019 R{6,16} + 2089.259941864081 R{6,17}
   + 2246.618972699826 R{6,18} + 2278.588847140558 R{6,19}
   + 2076.537336208761 R{6,20} + 2215.96794180185 R{6,21}
   + 1720.205230905171 R{6,22} + 2365.119594956833 R{6,23}
   + 1535.430871158995 R{6,24} + 1677.950048972429 R{6,25}
   + 968.1223763849666 R{6,26} + 1771.476169782024 R{6,27}
   + 1645.49853016629 R{6,28} + 2884.285087306323 R{6,29}
   + 1796.578989694609 R{6,30} + 2363.554256703313 R{6,31}
   + 1658.693143127097 R{6,32} + 887.4161698053804 R{6,33}
   + 1731.423159961625 R{6,34} + 1877.918180717729 R{6,35}
   + 1882.699602805756 R{6,36}
Subject To
 R00: R{0,0} <= 1
 R01: R{0,1} <= 1
 R02: R{0,2} <= 1
 R03: R{0,3} <= 1
 R04: R{0,4} <= 1
 R05: R{0,5} <= 1
 R06: R{0,6} <= 1
 R07: R{0,7} <= 1
 R08: R{0,8} <= 1
 R09: R{0,9} <= 1
 R010: R{0,10} <= 1
 R011: R{0,11} <= 1
 R012: R{0,12} <= 1
 R013: R{0,13} <= 1
 R014: R{0,14} <= 1
 R015: R{0,15} <= 1
 R016: R{1,0} <= 1
 R017: R{1,1} <= 1
 R018: R{1,2} <= 1
 R019: R{1,3} <= 1
 R020: R{1,4} <= 1
 R021: R{1,5} <= 1
 R022: R{1,6} <= 1
 R023: R{1,7} <= 1
 R024: R{1,8} <= 1
 R025: R{1,9} <= 1
 R026: R{1,10} <= 1
 R027: R{1,11} <= 1
 R028: R{1,12} <= 1
 R029: R{1,13} <= 1
 R030: R{1,14} <= 1
 R031: R{1,15} <= 1
 R032: R{1,16} <= 1
 R033: R{1,17} <= 1
 R034: R{1,18} <= 1
 R035: R{1,19} <= 1
 R036: R{1,20} <= 1
 R037: R{1,21} <= 1
 R038: R{2,0} <= 1
 R039: R{2,1} <= 1
 R040: R{2,2} <= 1
 R041: R{2,3} <= 1
 R042: R{2,4} <= 1
 R043: R{2,5} <= 1
 R044: R{2,6} <= 1
 R045: R{2,7} <= 1
 R046: R{2,8} <= 1
 R047: R{2,9} <= 1
 R048: R{2,10} <= 1
 R049: R{2,11} <= 1
 R050: R{2,12} <= 1
 R051: R{2,13} <= 1
 R052: R{2,14} <= 1
 R053: R{2,15} <= 1
 R054: R{2,16} <= 1
 R055: R{2,17} <= 1
 R056: R{2,18} <= 1
 R057: R{2,19} <= 1
 R058: R{2,20} <= 1
 R059: R{2,21} <= 1
 R060: R{2,22} <= 1
 R061: R{2,23} <= 1
 R062: R{2,24} <= 1
 R063: R{2,25} <= 1
 R064: R{2,26} <= 1
 R065: R{2,27} <= 1
 R066: R{3,0} <= 1
 R067: R{3,1} <= 1
 R068: R{3,2} <= 1
 R069: R{3,3} <= 1
 R070: R{3,4} <= 1
 R071: R{3,5} <= 1
 R072: R{3,6} <= 1
 R073: R{3,7} <= 1
 R074: R{3,8} <= 1
 R075: R{3,9} <= 1
 R076: R{3,10} <= 1
 R077: R{3,11} <= 1
 R078: R{3,12} <= 1
 R079: R{3,13} <= 1
 R080: R{3,14} <= 1
 R081: R{3,15} <= 1
 R082: R{3,16} <= 1
 R083: R{3,17} <= 1
 R084: R{3,18} <= 1
 R085: R{3,19} <= 1
 R086: R{3,20} <= 1
 R087: R{3,21} <= 1
 R088: R{3,22} <= 1
 R089: R{3,23} <= 1
 R090: R{4,0} <= 1
 R091: R{4,1} <= 1
 R092: R{4,2} <= 1
 R093: R{4,3} <= 1
 R094: R{4,4} <= 1
 R095: R{4,5} <= 1
 R096: R{4,6} <= 1
 R097: R{4,7} <= 1
 R098: R{4,8} <= 1
 R099: R{4,9} <= 1
 R0100: R{4,10} <= 1
 R0101: R{4,11} <= 1
 R0102: R{4,12} <= 1
 R0103: R{4,13} <= 1
 R0104: R{4,14} <= 1
 R0105: R{4,15} <= 1
 R0106: R{4,16} <= 1
 R0107: R{4,17} <= 1
 R0108: R{4,18} <= 1
 R0109: R{4,19} <= 1
 R0110: R{4,20} <= 1
 R0111: R{4,21} <= 1
 R0112: R{4,22} <= 1
 R0113: R{4,23} <= 1
 R0114: R{4,24} <= 1
 R0115: R{4,25} <= 1
 R0116: R{4,26} <= 1
 R0117: R{4,27} <= 1
 R0118: R{4,28} <= 1
 R0119: R{4,29} <= 1
 R0120: R{4,30} <= 1
 R0121: R{4,31} <= 1
 R0122: R{4,32} <= 1
 R0123: R{4,33} <= 1
 R0124: R{5,0} <= 1
 R0125: R{5,1} <= 1
 R0126: R{5,2} <= 1
 R0127: R{5,3} <= 1
 R0128: R{5,4} <= 1
 R0129: R{5,5} <= 1
 R0130: R{5,6} <= 1
 R0131: R{5,7} <= 1
 R0132: R{5,8} <= 1
 R0133: R{5,9} <= 1
 R0134: R{5,10} <= 1
 R0135: R{5,11} <= 1
 R0136: R{5,12} <= 1
 R0137: R{5,13} <= 1
 R0138: R{5,14} <= 1
 R0139: R{5,15} <= 1
 R0140: R{5,16} <= 1
 R0141: R{5,17} <= 1
 R0142: R{5,18} <= 1
 R0143: R{5,19} <= 1
 R0144: R{6,0} <= 1
 R0145: R{6,1} <= 1
 R0146: R{6,2} <= 1
 R0147: R{6,3} <= 1
 R0148: R{6,4} <= 1
 R0149: R{6,5} <= 1
 R0150: R{6,6} <= 1
 R0151: R{6,7} <= 1
 R0152: R{6,8} <= 1
 R0153: R{6,9} <= 1
 R0154: R{6,10} <= 1
 R0155: R{6,11} <= 1
 R0156: R{6,12} <= 1
 R0157: R{6,13} <= 1
 R0158: R{6,14} <= 1
 R0159: R{6,15} <= 1
 R0160: R{6,16} <= 1
 R0161: R{6,17} <= 1
 R0162: R{6,18} <= 1
 R0163: R{6,19} <= 1
 R0164: R{6,20} <= 1
 R0165: R{6,21} <= 1
 R0166: R{6,22} <= 1
 R0167: R{6,23} <= 1
 R0168: R{6,24} <= 1
 R0169: R{6,25} <= 1
 R0170: R{6,26} <= 1
 R0171: R{6,27} <= 1
 R0172: R{6,28} <= 1
 R0173: R{6,29} <= 1
 R0174: R{6,30} <= 1
 R0175: R{6,31} <= 1
 R0176: R{6,32} <= 1
 R0177: R{6,33} <= 1
 R0178: R{6,34} <= 1
 R0179: R{6,35} <= 1
 R0180: R{6,36} <= 1
 R1_0: R{0,0} + R{0,1} + R{0,2} + R{0,3} + R{0,4} + R{0,5} + R{0,6}
   + R{0,7} + R{0,8} + R{0,9} + R{0,10} + R{0,11} + R{0,12} + R{0,13}
   + R{0,14} + R{0,15} <= 1
 R1_1: R{1,0} + R{1,1} + R{1,2} + R{1,3} + R{1,4} + R{1,5} + R{1,6}
   + R{1,7} + R{1,8} + R{1,9} + R{1,10} + R{1,11} + R{1,12} + R{1,13}
   + R{1,14} + R{1,15} + R{1,16} + R{1,17} + R{1,18} + R{1,19} + R{1,20}
   + R{1,21} <= 1
 R1_2: R{2,0} + R{2,1} + R{2,2} + R{2,3} + R{2,4} + R{2,5} + R{2,6}
   + R{2,7} + R{2,8} + R{2,9} + R{2,10} + R{2,11} + R{2,12} + R{2,13}
   + R{2,14} + R{2,15} + R{2,16} + R{2,17} + R{2,18} + R{2,19} + R{2,20}
   + R{2,21} + R{2,22} + R{2,23} + R{2,24} + R{2,25} + R{2,26} + R{2,27}
   <= 1
 R1_3: R{3,0} + R{3,1} + R{3,2} + R{3,3} + R{3,4} + R{3,5} + R{3,6}
   + R{3,7} + R{3,8} + R{3,9} + R{3,10} + R{3,11} + R{3,12} + R{3,13}
   + R{3,14} + R{3,15} + R{3,16} + R{3,17} + R{3,18} + R{3,19} + R{3,20}
   + R{3,21} + R{3,22} + R{3,23} <= 1
 R1_4: R{4,0} + R{4,1} + R{4,2} + R{4,3} + R{4,4} + R{4,5} + R{4,6}
   + R{4,7} + R{4,8} + R{4,9} + R{4,10} + R{4,11} + R{4,12} + R{4,13}
   + R{4,14} + R{4,15} + R{4,16} + R{4,17} + R{4,18} + R{4,19} + R{4,20}
   + R{4,21} + R{4,22} + R{4,23} + R{4,24} + R{4,25} + R{4,26} + R{4,27}
   + R{4,28} + R{4,29} + R{4,30} + R{4,31} + R{4,32} + R{4,33} <= 1
 R1_5: R{5,0} + R{5,1} + R{5,2} + R{5,3} + R{5,4} + R{5,5} + R{5,6}
   + R{5,7} + R{5,8} + R{5,9} + R{5,10} + R{5,11} + R{5,12} + R{5,13}
   + R{5,14} + R{5,15} + R{5,16} + R{5,17} + R{5,18} + R{5,19} <= 1
 R1_6: R{6,0} + R{6,1} + R{6,2} + R{6,3} + R{6,4} + R{6,5} + R{6,6}
   + R{6,7} + R{6,8} + R{6,9} + R{6,10} + R{6,11} + R{6,12} + R{6,13}
   + R{6,14} + R{6,15} + R{6,16} + R{6,17} + R{6,18} + R{6,19} + R{6,20}
   + R{6,21} + R{6,22} + R{6,23} + R{6,24} + R{6,25} + R{6,26} + R{6,27}
   + R{6,28} + R{6,29} + R{6,30} + R{6,31} + R{6,32} + R{6,33} + R{6,34}
   + R{6,35} + R{6,36} <= 1
 R2_0: 7 R{1,6} + 7 R{1,8} + 7 R{1,10} + 7 R{1,18} + 7 R{4,22} + 7 R{4,26}
   + 7 R{4,30} + 7 R{5,9} + 7 R{5,10} + 7 R{5,11} + 7 R{5,14} + 7 R{5,16}
   + 7 R{5,17} <= 7
 R2_1: 10 R{0,13} + 10 R{2,13} + 10 R{3,1} + 10 R{3,2} + 10 R{3,3}
   + 10 R{3,4} + 10 R{3,5} + 10 R{3,8} + 10 R{3,9} + 10 R{3,14}
   + 10 R{3,15} + 10 R{3,17} + 10 R{3,21} + 10 R{6,8} + 10 R{6,11}
   + 10 R{6,14} + 10 R{6,15} + 10 R{6,18} + 10 R{6,19} + 10 R{6,20}
   + 10 R{6,24} + 10 R{6,27} + 10 R{6,30} + 10 R{6,35} <= 10
 R2_2: <= 0
 R2_3: 4 R{1,4} + 4 R{1,7} + 4 R{1,9} + 4 R{1,16} + 4 R{1,17} + 4 R{2,7}
   + 4 R{5,1} + 4 R{5,2} + 4 R{5,4} + 4 R{5,7} + 4 R{5,8} + 4 R{5,9}
   + 4 R{5,10} + 4 R{5,12} + 4 R{5,14} + 4 R{5,17} + 4 R{5,18} <= 4
 R2_4: <= 0
 R2_5: 5 R{5,1} + 5 R{5,2} <= 5
 R2_6: 10 R{1,1} + 10 R{1,2} + 10 R{1,3} + 10 R{1,4} + 10 R{1,5}
   + 10 R{1,6} + 10 R{1,7} + 10 R{1,8} + 10 R{1,9} + 10 R{1,10}
   + 10 R{1,11} + 10 R{1,12} + 10 R{1,14} + 10 R{1,16} + 10 R{2,18}
   + 10 R{3,16} + 10 R{5,15} + 10 R{5,17} + 10 R{5,19} + 10 R{6,17}
   + 10 R{6,32} <= 10
 R2_7: 6 R{1,1} + 6 R{5,10} + 6 R{5,14} <= 6
 R2_8: <= 0
 R2_9: 12 R{1,6} + 12 R{4,1} + 12 R{4,2} + 12 R{4,3} + 12 R{4,4}
   + 12 R{4,5} + 12 R{4,7} + 12 R{4,8} + 12 R{4,10} + 12 R{4,11}
   + 12 R{4,13} + 12 R{4,14} + 12 R{4,17} + 12 R{4,19} + 12 R{4,20}
   + 12 R{4,23} + 12 R{4,24} + 12 R{4,27} + 12 R{4,28} + 12 R{4,31} <= 12
 R2_10: 8 R{0,11} + 8 R{2,9} + 8 R{2,11} + 8 R{4,9} + 8 R{4,16} + 8 R{4,32}
   + 8 R{5,18} + 8 R{6,1} + 8 R{6,2} + 8 R{6,4} + 8 R{6,5} + 8 R{6,6}
   + 8 R{6,7} + 8 R{6,8} + 8 R{6,10} + 8 R{6,11} + 8 R{6,12} + 8 R{6,14}
   + 8 R{6,15} + 8 R{6,16} + 8 R{6,18} + 8 R{6,20} + 8 R{6,24} + 8 R{6,25}
   + 8 R{6,28} + 8 R{6,29} + 8 R{6,30} + 8 R{6,31} + 8 R{6,34} + 8 R{6,35}
   + 8 R{6,36} <= 8
 R2_11: 15 R{0,8} + 15 R{0,14} + 15 R{2,9} + 15 R{2,11} + 15 R{2,19}
   + 15 R{2,25} + 15 R{4,25} + 15 R{4,26} + 15 R{6,8} + 15 R{6,11}
   + 15 R{6,12} + 15 R{6,14} + 15 R{6,15} + 15 R{6,20} + 15 R{6,22}
   + 15 R{6,24} + 15 R{6,27} + 15 R{6,28} + 15 R{6,30} + 15 R{6,33} <= 15
 R2_12: <= 0
 R2_13: <= 0
 R2_14: <= 0
 R2_15: 11 R{0,0} + 11 R{0,1} + 11 R{0,2} + 11 R{4,1} + 11 R{4,2}
   + 11 R{4,17} + 11 R{4,19} + 11 R{4,31} <= 11
 R2_16: 5 R{0,7} + 5 R{2,9} + 5 R{4,7} + 5 R{4,11} + 5 R{4,23} + 5 R{6,8}
   + 5 R{6,11} + 5 R{6,12} + 5 R{6,18} + 5 R{6,22} + 5 R{6,28} + 5 R{6,30}
   + 5 R{6,35} <= 5
 R2_17: 11 R{1,6} + 11 R{4,25} + 11 R{4,26} + 11 R{4,29} + 11 R{6,9}
   + 11 R{6,10} + 11 R{6,29} + 11 R{6,31} + 11 R{6,33} <= 11
 R2_18: 5 R{4,13} + 5 R{4,28} + 5 R{6,33} <= 5
 R2_19: 11 R{2,7} + 11 R{4,1} + 11 R{4,2} + 11 R{4,3} + 11 R{4,4}
   + 11 R{4,5} + 11 R{4,7} + 11 R{4,9} + 11 R{4,15} + 11 R{4,19}
   + 11 R{4,23} + 11 R{4,31} + 11 R{5,3} + 11 R{5,5} + 11 R{5,7}
   + 11 R{5,8} + 11 R{5,9} + 11 R{5,10} + 11 R{5,13} + 11 R{6,8}
   + 11 R{6,11} + 11 R{6,14} + 11 R{6,18} + 11 R{6,35} <= 11
 R2_20: 13 R{0,9} + 13 R{1,7} + 13 R{1,13} + 13 R{2,5} + 13 R{2,8}
   + 13 R{2,10} + 13 R{2,12} + 13 R{2,16} + 13 R{2,20} + 13 R{2,23}
   + 13 R{4,8} + 13 R{4,13} + 13 R{4,19} + 13 R{4,31} + 13 R{5,4}
   + 13 R{5,6} + 13 R{5,11} + 13 R{5,16} + 13 R{6,1} + 13 R{6,2}
   + 13 R{6,3} + 13 R{6,4} + 13 R{6,5} + 13 R{6,7} + 13 R{6,9} + 13 R{6,10}
   + 13 R{6,13} + 13 R{6,16} + 13 R{6,19} + 13 R{6,21} + 13 R{6,25}
   + 13 R{6,34} <= 13
 R2_21: <= 0
 R2_22: 10 R{0,10} + 10 R{0,15} + 10 R{1,6} + 10 R{1,16} + 10 R{1,18}
   + 10 R{4,8} + 10 R{4,10} + 10 R{4,13} + 10 R{4,26} + 10 R{4,28}
   + 10 R{6,30} + 10 R{6,34} + 10 R{6,36} <= 10
 R2_23: 14 R{0,1} + 14 R{0,2} + 14 R{0,6} + 14 R{0,7} + 14 R{2,0}
   + 14 R{2,1} + 14 R{2,26} + 14 R{4,3} + 14 R{4,4} + 14 R{4,8}
   + 14 R{4,14} + 14 R{4,15} + 14 R{4,24} + 14 R{4,29} + 14 R{5,18}
   + 14 R{6,2} + 14 R{6,3} + 14 R{6,4} + 14 R{6,9} + 14 R{6,13}
   + 14 R{6,17} + 14 R{6,19} + 14 R{6,21} + 14 R{6,23} + 14 R{6,25}
   + 14 R{6,32} + 14 R{6,34} + 14 R{6,36} <= 14
 R2_24: 10 R{2,8} + 10 R{2,15} + 10 R{2,22} + 10 R{3,1} + 10 R{3,2}
   + 10 R{3,3} + 10 R{3,4} + 10 R{3,6} + 10 R{3,7} + 10 R{3,8} + 10 R{3,9}
   + 10 R{3,11} + 10 R{3,15} + 10 R{3,17} + 10 R{3,20} + 10 R{3,21}
   + 10 R{4,31} + 10 R{5,5} + 10 R{6,10} + 10 R{6,29} + 10 R{6,31} <= 10
 R2_25: 13 R{3,8} + 13 R{3,12} + 13 R{3,15} + 13 R{4,1} + 13 R{4,2}
   + 13 R{4,3} + 13 R{4,4} + 13 R{4,5} + 13 R{4,6} + 13 R{4,7} + 13 R{4,9}
   + 13 R{4,11} + 13 R{4,12} + 13 R{4,13} + 13 R{4,14} + 13 R{4,15}
   + 13 R{4,17} + 13 R{4,19} + 13 R{4,20} + 13 R{4,24} + 13 R{4,25}
   + 13 R{4,28} + 13 R{4,31} + 13 R{6,10} + 13 R{6,17} + 13 R{6,23}
   + 13 R{6,29} + 13 R{6,31} + 13 R{6,32} + 13 R{6,36} <= 13
 R2_26: 6 R{0,12} + 6 R{0,13} + 6 R{1,6} + 6 R{1,8} + 6 R{1,10} + 6 R{1,12}
   + 6 R{1,15} + 6 R{1,18} + 6 R{1,21} + 6 R{2,8} + 6 R{2,23} + 6 R{5,1}
   + 6 R{5,2} + 6 R{5,3} + 6 R{5,4} + 6 R{5,15} + 6 R{5,19} <= 6
 R2_27: 5 R{1,3} + 5 R{1,4} + 5 R{1,9} + 5 R{1,20} + 5 R{1,21} + 5 R{2,15}
   + 5 R{2,17} + 5 R{2,22} + 5 R{2,24} + 5 R{2,27} + 5 R{3,9} + 5 R{3,10}
   + 5 R{3,11} + 5 R{3,12} + 5 R{3,17} + 5 R{3,19} + 5 R{3,22} + 5 R{3,23}
   + 5 R{4,9} + 5 R{4,11} + 5 R{4,17} + 5 R{4,23} + 5 R{4,29} + 5 R{4,32}
   + 5 R{4,33} + 5 R{5,12} + 5 R{5,18} + 5 R{6,1} + 5 R{6,2} + 5 R{6,3}
   + 5 R{6,4} + 5 R{6,5} + 5 R{6,6} + 5 R{6,7} + 5 R{6,8} + 5 R{6,10}
   + 5 R{6,12} + 5 R{6,15} + 5 R{6,17} + 5 R{6,23} + 5 R{6,27} + 5 R{6,29}
   + 5 R{6,34} + 5 R{6,36} <= 5
 R2_28: <= 0
 R2_29: <= 0
 R2_30: <= 0
 R2_31: 6 R{2,10} + 6 R{3,21} <= 6
 R2_32: 7 R{0,4} + 7 R{0,5} + 7 R{0,12} + 7 R{1,17} + 7 R{5,4} + 7 R{5,5}
   + 7 R{5,7} + 7 R{5,8} + 7 R{5,9} + 7 R{5,11} + 7 R{5,12} + 7 R{5,13}
   + 7 R{5,17} + 7 R{5,18} <= 7
 R2_33: 12 R{1,14} + 12 R{3,4} + 12 R{3,6} + 12 R{3,7} + 12 R{5,4}
   + 12 R{5,5} + 12 R{5,6} + 12 R{5,9} + 12 R{5,10} + 12 R{5,11}
   + 12 R{5,12} + 12 R{5,14} + 12 R{5,16} + 12 R{5,17} <= 12
 R2_34: 5 R{0,10} + 5 R{1,5} + 5 R{2,21} + 5 R{3,8} + 5 R{3,11} + 5 R{3,18}
   + 5 R{4,16} + 5 R{4,21} + 5 R{4,22} + 5 R{4,24} + 5 R{4,27} + 5 R{4,30}
   + 5 R{4,32} + 5 R{5,11} + 5 R{5,15} + 5 R{6,6} + 5 R{6,8} + 5 R{6,9}
   + 5 R{6,11} + 5 R{6,12} + 5 R{6,14} + 5 R{6,15} + 5 R{6,19} + 5 R{6,20}
   + 5 R{6,22} + 5 R{6,24} + 5 R{6,28} <= 5
 R2_35: 13 R{5,4} + 13 R{5,5} <= 13
 R2_36: <= 0
 R2_37: 5 R{0,12} + 5 R{1,6} + 5 R{1,8} + 5 R{1,17} + 5 R{2,17} + 5 R{3,1}
   + 5 R{3,2} + 5 R{3,5} + 5 R{3,8} + 5 R{3,9} + 5 R{3,10} + 5 R{3,12}
   + 5 R{3,13} + 5 R{3,17} + 5 R{6,29} + 5 R{6,31} <= 5
 R2_38: <= 0
 R2_39: <= 0
 R2_40: 15 R{0,12} + 15 R{0,13} + 15 R{1,12} + 15 R{1,15} + 15 R{1,17}
   + 15 R{1,18} + 15 R{1,21} + 15 R{2,3} + 15 R{2,4} + 15 R{2,5}
   + 15 R{2,7} + 15 R{2,10} + 15 R{2,12} + 15 R{2,13} + 15 R{2,16}
   + 15 R{2,17} + 15 R{2,18} + 15 R{2,20} + 15 R{2,22} + 15 R{2,23}
   + 15 R{3,19} + 15 R{5,15} + 15 R{5,19} <= 15
 R2_41: 5 R{0,10} + 5 R{1,8} + 5 R{1,10} + 5 R{1,11} + 5 R{1,12}
   + 5 R{1,15} + 5 R{1,17} + 5 R{1,19} + 5 R{1,21} + 5 R{2,21} + 5 R{3,2}
   + 5 R{3,3} + 5 R{3,5} + 5 R{3,8} + 5 R{3,9} + 5 R{3,10} + 5 R{3,11}
   + 5 R{3,14} + 5 R{3,16} + 5 R{3,18} + 5 R{3,20} + 5 R{4,6} + 5 R{4,7}
   + 5 R{4,11} + 5 R{4,12} + 5 R{4,13} + 5 R{4,14} + 5 R{4,16} + 5 R{4,18}
   + 5 R{4,20} + 5 R{4,21} + 5 R{4,22} + 5 R{4,23} + 5 R{4,24} + 5 R{4,25}
   + 5 R{4,27} + 5 R{4,32} + 5 R{4,33} + 5 R{5,19} + 5 R{6,4} + 5 R{6,7}
   + 5 R{6,12} + 5 R{6,15} + 5 R{6,18} + 5 R{6,20} + 5 R{6,22} + 5 R{6,24}
   + 5 R{6,27} + 5 R{6,31} <= 5
 R2_42: 4 R{2,3} + 4 R{2,4} + 4 R{2,5} + 4 R{2,12} + 4 R{2,13} + 4 R{2,18}
   + 4 R{2,24} <= 4
 R2_43: <= 0
 R2_44: <= 0
 R2_45: <= 0
 R2_46: 9 R{0,8} + 9 R{2,6} + 9 R{2,14} + 9 R{4,5} + 9 R{4,6} + 9 R{4,10}
   + 9 R{4,12} + 9 R{4,13} + 9 R{4,16} + 9 R{4,18} + 9 R{4,20} + 9 R{4,21}
   + 9 R{4,22} + 9 R{4,27} + 9 R{4,28} + 9 R{4,32} + 9 R{4,33} + 9 R{5,12}
   + 9 R{6,10} + 9 R{6,29} + 9 R{6,31} <= 9
 R2_47: 7 R{5,1} + 7 R{5,2} + 7 R{5,3} <= 7
 R2_48: 4 R{2,11} + 4 R{2,19} + 4 R{4,1} + 4 R{4,2} + 4 R{4,3} + 4 R{4,4}
   + 4 R{4,5} + 4 R{4,6} + 4 R{4,7} + 4 R{4,8} + 4 R{4,9} + 4 R{4,11}
   + 4 R{4,13} + 4 R{4,14} + 4 R{4,17} + 4 R{4,18} + 4 R{4,19} + 4 R{4,20}
   + 4 R{4,23} + 4 R{4,24} + 4 R{4,28} + 4 R{4,31} + 4 R{4,33} + 4 R{6,10}
   + 4 R{6,29} + 4 R{6,31} <= 4
 R2_49: <= 0
 R2_50: <= 0
 R2_51: 11 R{1,6} + 11 R{1,8} + 11 R{1,18} + 11 R{1,19} + 11 R{1,20}
   + 11 R{2,27} + 11 R{3,10} + 11 R{3,19} + 11 R{3,23} + 11 R{4,1}
   + 11 R{5,7} + 11 R{5,8} + 11 R{5,15} + 11 R{5,19} + 11 R{6,35} <= 11
 R2_52: 10 R{4,12} + 10 R{4,16} + 10 R{4,21} + 10 R{4,22} + 10 R{4,26}
   + 10 R{4,27} + 10 R{4,29} + 10 R{4,30} + 10 R{4,32} <= 10
 R2_53: 13 R{4,1} + 13 R{4,2} + 13 R{4,3} + 13 R{4,5} + 13 R{4,10}
   + 13 R{4,17} + 13 R{4,19} + 13 R{4,29} + 13 R{4,31} <= 13
 R2_54: 9 R{1,12} + 9 R{3,1} + 9 R{3,2} + 9 R{3,3} + 9 R{3,4} + 9 R{3,5}
   + 9 R{3,6} + 9 R{3,11} + 9 R{3,12} + 9 R{3,13} + 9 R{3,14} + 9 R{3,16}
   + 9 R{3,20} + 9 R{3,21} + 9 R{5,6} + 9 R{6,19} + 9 R{6,32} + 9 R{6,36}
   <= 9
 R2_55: 8 R{0,15} + 8 R{5,15} + 8 R{5,18} + 8 R{5,19} + 8 R{6,1} + 8 R{6,2}
   + 8 R{6,3} + 8 R{6,5} + 8 R{6,6} + 8 R{6,7} + 8 R{6,8} + 8 R{6,11}
   + 8 R{6,12} + 8 R{6,13} + 8 R{6,14} + 8 R{6,15} + 8 R{6,16} + 8 R{6,17}
   + 8 R{6,18} + 8 R{6,19} + 8 R{6,20} + 8 R{6,21} + 8 R{6,22} + 8 R{6,23}
   + 8 R{6,24} + 8 R{6,25} + 8 R{6,26} + 8 R{6,27} + 8 R{6,28} + 8 R{6,35}
   <= 8
 R2_56: 6 R{1,6} + 6 R{1,17} + 6 R{2,0} + 6 R{2,1} + 6 R{2,6} + 6 R{2,26}
   + 6 R{3,12} + 6 R{3,18} + 6 R{4,4} + 6 R{4,8} + 6 R{4,9} + 6 R{4,15}
   + 6 R{4,21} + 6 R{4,27} + 6 R{5,6} + 6 R{5,10} + 6 R{5,12} + 6 R{5,18}
   + 6 R{6,2} + 6 R{6,3} + 6 R{6,5} + 6 R{6,9} + 6 R{6,13} + 6 R{6,17}
   + 6 R{6,21} + 6 R{6,23} + 6 R{6,26} + 6 R{6,32} + 6 R{6,33} + 6 R{6,36}
   <= 6
 R2_57: <= 0
 R2_58: 15 R{2,26} + 15 R{4,16} + 15 R{4,21} + 15 R{4,22} + 15 R{4,26}
   + 15 R{4,29} + 15 R{4,30} + 15 R{4,32} + 15 R{6,27} + 15 R{6,33} <= 15
 R2_59: 10 R{2,11} + 10 R{5,4} + 10 R{5,5} + 10 R{5,6} + 10 R{5,15}
   + 10 R{6,6} + 10 R{6,10} + 10 R{6,19} + 10 R{6,29} <= 10
 R2_60: <= 0
 R2_61: 9 R{1,12} + 9 R{1,15} + 9 R{1,21} + 9 R{4,6} + 9 R{4,12}
   + 9 R{4,13} + 9 R{4,18} + 9 R{4,25} + 9 R{4,33} + 9 R{6,6} + 9 R{6,9}
   + 9 R{6,14} + 9 R{6,19} + 9 R{6,22} <= 9
 R2_62: <= 0
 R2_63: <= 0
 R2_64: <= 0
 R2_65: 5 R{0,10} + 5 R{0,15} + 5 R{1,6} + 5 R{1,8} + 5 R{1,10} + 5 R{1,17}
   + 5 R{2,0} + 5 R{2,1} + 5 R{2,26} + 5 R{4,24} + 5 R{4,28} + 5 R{6,1}
   + 5 R{6,2} + 5 R{6,3} + 5 R{6,4} + 5 R{6,7} + 5 R{6,8} + 5 R{6,10}
   + 5 R{6,11} + 5 R{6,13} + 5 R{6,16} + 5 R{6,18} + 5 R{6,21} + 5 R{6,25}
   + 5 R{6,28} + 5 R{6,29} + 5 R{6,30} + 5 R{6,34} + 5 R{6,35} <= 5
 R2_66: 7 R{3,12} + 7 R{3,13} + 7 R{3,16} + 7 R{5,5} + 7 R{5,6} + 7 R{5,9}
   + 7 R{5,11} + 7 R{5,12} + 7 R{5,17} + 7 R{5,18} + 7 R{6,1} + 7 R{6,2}
   + 7 R{6,3} + 7 R{6,4} + 7 R{6,5} + 7 R{6,7} + 7 R{6,8} + 7 R{6,13}
   + 7 R{6,15} + 7 R{6,17} + 7 R{6,18} + 7 R{6,26} + 7 R{6,27} + 7 R{6,30}
   + 7 R{6,32} <= 7
 R2_67: 3 R{0,1} + 3 R{0,2} + 3 R{0,6} + 3 R{0,11} + 3 R{0,14} + 3 R{2,0}
   + 3 R{2,1} + 3 R{2,6} + 3 R{2,9} + 3 R{2,11} + 3 R{2,14} + 3 R{2,19}
   + 3 R{2,25} + 3 R{4,9} + 3 R{4,15} + 3 R{4,25} + 3 R{4,30} + 3 R{5,9}
   + 3 R{5,10} + 3 R{5,12} + 3 R{5,18} + 3 R{6,3} + 3 R{6,8} + 3 R{6,10}
   + 3 R{6,12} + 3 R{6,17} + 3 R{6,18} + 3 R{6,21} + 3 R{6,23} + 3 R{6,25}
   + 3 R{6,26} + 3 R{6,28} + 3 R{6,29} + 3 R{6,30} + 3 R{6,31} + 3 R{6,32}
   + 3 R{6,35} + 3 R{6,36} <= 3
 R2_68: 6 R{1,1} + 6 R{1,2} + 6 R{1,3} + 6 R{1,4} + 6 R{1,9} + 6 R{1,11}
   + 6 R{1,16} + 6 R{1,19} + 6 R{2,15} + 6 R{5,5} + 6 R{5,9} + 6 R{5,10}
   + 6 R{5,11} + 6 R{5,12} + 6 R{5,17} + 6 R{5,18} + 6 R{6,12} + 6 R{6,22}
   + 6 R{6,24} + 6 R{6,28} <= 6
 R2_69: 7 R{1,6} + 7 R{1,8} + 7 R{1,10} + 7 R{1,17} + 7 R{2,15} + 7 R{3,7}
   + 7 R{4,1} + 7 R{4,2} + 7 R{4,3} + 7 R{4,4} + 7 R{4,5} + 7 R{4,6}
   + 7 R{4,7} + 7 R{4,8} + 7 R{4,9} + 7 R{4,10} + 7 R{4,12} + 7 R{4,14}
   + 7 R{4,15} + 7 R{4,16} + 7 R{4,18} + 7 R{4,19} + 7 R{4,20} + 7 R{4,21}
   + 7 R{4,23} + 7 R{4,25} + 7 R{5,13} + 7 R{6,9} + 7 R{6,19} + 7 R{6,21}
   <= 7
 R2_70: 11 R{1,1} + 11 R{1,2} + 11 R{1,9} <= 11
 R2_71: 7 R{1,4} + 7 R{1,7} + 7 R{1,15} + 7 R{1,18} + 7 R{1,21} + 7 R{4,25}
   + 7 R{6,1} + 7 R{6,2} + 7 R{6,3} + 7 R{6,4} + 7 R{6,5} + 7 R{6,6}
   + 7 R{6,7} + 7 R{6,8} + 7 R{6,10} + 7 R{6,11} + 7 R{6,12} + 7 R{6,13}
   + 7 R{6,14} + 7 R{6,15} + 7 R{6,16} + 7 R{6,18} + 7 R{6,20} + 7 R{6,21}
   + 7 R{6,22} + 7 R{6,24} + 7 R{6,25} + 7 R{6,26} + 7 R{6,27} + 7 R{6,28}
   + 7 R{6,29} + 7 R{6,30} + 7 R{6,31} + 7 R{6,34} + 7 R{6,35} <= 7
 R2_72: <= 0
 R2_73: <= 0
 R2_74: 5 R{5,1} <= 5
 R2_75: 8 R{6,1} + 8 R{6,2} + 8 R{6,3} + 8 R{6,4} + 8 R{6,8} + 8 R{6,11}
   + 8 R{6,12} + 8 R{6,13} + 8 R{6,14} + 8 R{6,15} + 8 R{6,16} + 8 R{6,18}
   + 8 R{6,19} + 8 R{6,20} + 8 R{6,21} + 8 R{6,22} + 8 R{6,24} + 8 R{6,25}
   + 8 R{6,27} + 8 R{6,28} + 8 R{6,30} + 8 R{6,33} + 8 R{6,34} + 8 R{6,35}
   <= 8
 R2_76: 12 R{0,4} + 12 R{0,5} + 12 R{0,9} + 12 R{0,12} + 12 R{2,7}
   + 12 R{2,8} + 12 R{2,17} + 12 R{2,23} + 12 R{3,12} + 12 R{3,13}
   + 12 R{3,16} + 12 R{5,3} + 12 R{5,6} + 12 R{5,7} + 12 R{5,8}
   + 12 R{5,10} + 12 R{5,13} + 12 R{5,14} + 12 R{5,15} + 12 R{5,16}
   + 12 R{5,19} + 12 R{6,9} + 12 R{6,10} + 12 R{6,29} + 12 R{6,31} <= 12
 R2_77: 7 R{0,5} + 7 R{0,9} + 7 R{1,2} + 7 R{1,5} + 7 R{1,9} + 7 R{1,10}
   + 7 R{1,11} + 7 R{1,13} + 7 R{1,14} + 7 R{1,16} + 7 R{2,4} + 7 R{2,5}
   + 7 R{2,7} + 7 R{2,12} + 7 R{2,13} + 7 R{2,16} + 7 R{2,18} + 7 R{2,20}
   + 7 R{3,14} + 7 R{3,15} + 7 R{4,2} + 7 R{4,3} + 7 R{4,16} + 7 R{5,2}
   + 7 R{5,3} + 7 R{5,4} + 7 R{5,5} + 7 R{5,6} + 7 R{5,9} + 7 R{5,11}
   + 7 R{5,12} + 7 R{5,14} + 7 R{5,16} + 7 R{5,17} + 7 R{5,18} + 7 R{6,11}
   + 7 R{6,14} + 7 R{6,16} + 7 R{6,20} + 7 R{6,23} <= 7
Bounds
End
